objective value:                      1.5238110352379
x(0,2,1)                                            1 	(obj:0)
x(1,6,0)                                            1 	(obj:0)
x(2,4,1)                                            1 	(obj:0)
x(3,1,0)                                            1 	(obj:0)
x(4,5,1)                                            1 	(obj:0)
x(5,10,1)                                           1 	(obj:0)
x(6,7,0)                                            1 	(obj:0)
x(7,13,0)                                           1 	(obj:0)
x(10,0,1)                                           1 	(obj:0)
x(13,3,0)                                           1 	(obj:0)
xc(0,5)                                             1 	(obj:0)
xc(1,13)                                            1 	(obj:0)
xc(2,9)                                             1 	(obj:0)
xc(3,6)                                             1 	(obj:0)
xc(5,0)                                             1 	(obj:0)
xc(7,5)                                             1 	(obj:0)
u(0,0)                                1.5238110352379 	(obj:0)
u(1,0)                             0.0879195192816997 	(obj:0)
u(2,1)                              0.566375252188299 	(obj:0)
u(4,1)                              0.811989752798299 	(obj:0)
u(5,1)                                1.3279186074405 	(obj:0)
u(6,0)                              0.328417738708802 	(obj:0)
u(7,0)                              0.801250312903002 	(obj:0)
u(8,0)                                1.5238110352379 	(obj:0)
u(8,1)                                1.5238110352379 	(obj:0)
u(10,0)                               1.5238110352379 	(obj:0)
u(10,1)                               1.5238110352379 	(obj:0)
u(11,0)                               1.5238110352379 	(obj:0)
u(11,1)                               1.5238110352379 	(obj:0)
u(12,0)                               1.5238110352379 	(obj:0)
u(12,1)                               1.5238110352379 	(obj:0)
u(13,0)                               1.5238110352379 	(obj:0)
u(13,1)                               1.5238110352379 	(obj:0)
u(14,0)                               1.5238110352379 	(obj:0)
u(14,1)                               1.5238110352379 	(obj:0)
u(15,0)                               1.5238110352379 	(obj:0)
u(15,1)                               1.5238110352379 	(obj:0)
u(16,0)                               1.5238110352379 	(obj:0)
u(16,1)                               1.5238110352379 	(obj:0)
u(17,0)                               1.5238110352379 	(obj:0)
u(17,1)                               1.5238110352379 	(obj:0)
u(18,0)                               1.5238110352379 	(obj:0)
u(18,1)                               1.5238110352379 	(obj:0)
u(19,0)                               1.5238110352379 	(obj:0)
u(19,1)                               1.5238110352379 	(obj:0)
f(0,2,0)                                            1 	(obj:0)
f(0,2,1)                                            1 	(obj:0)
f(0,2,3)                                            1 	(obj:0)
f(0,2,4)                                            1 	(obj:0)
f(0,5,0)                                            1 	(obj:0)
f(0,5,1)                                            1 	(obj:0)
f(1,6,1)                                            1 	(obj:0)
f(1,13,1)                                           1 	(obj:0)
f(1,13,3)                                           1 	(obj:0)
f(2,9,0)                                            1 	(obj:0)
f(2,9,1)                                            1 	(obj:0)
f(2,9,2)                                            1 	(obj:0)
f(2,9,3)                                            1 	(obj:0)
f(2,9,4)                                            1 	(obj:0)
f(3,1,1)                                            1 	(obj:0)
f(3,1,3)                                            1 	(obj:0)
f(3,6,0)                                            1 	(obj:0)
f(3,6,3)                                            1 	(obj:0)
f(3,6,4)                                            1 	(obj:0)
f(4,5,4)                                            1 	(obj:0)
f(5,0,1)                                            1 	(obj:0)
f(5,10,0)                                           1 	(obj:0)
f(5,10,1)                                           1 	(obj:0)
f(5,10,3)                                           1 	(obj:0)
f(5,10,4)                                           1 	(obj:0)
f(6,7,0)                                            1 	(obj:0)
f(6,7,1)                                            1 	(obj:0)
f(6,7,3)                                            1 	(obj:0)
f(6,7,4)                                            1 	(obj:0)
f(7,5,1)                                            1 	(obj:0)
f(7,5,3)                                            1 	(obj:0)
f(7,13,0)                                           1 	(obj:0)
f(7,13,4)                                           1 	(obj:0)
f(10,0,0)                                           1 	(obj:0)
f(10,0,1)                                           1 	(obj:0)
f(10,0,3)                                           1 	(obj:0)
f(10,0,4)                                           1 	(obj:0)
f(13,3,0)                                           1 	(obj:0)
f(13,3,1)                                           1 	(obj:0)
f(13,3,3)                                           1 	(obj:0)
f(13,3,4)                                           1 	(obj:0)
z_r(0,)                               1.5238110352379 	(obj:0)
z_r(1,)                               1.5238110352379 	(obj:0)
z                                     1.5238110352379 	(obj:1)
